100 4 100
4 27 34 34 21 87 42 83 92 79 76 49 39 80 43 38 96 73 58 99 14 29 1 54 41 10 8 9 32 94 14 59 80 32 68 43 16 12 22 44 13 13 76 56 51 24 81 62 25 81 28 6 34 83 47 45 43 57 29 89 23 88 69 23 72 89 18 88 1 92 84 66 58 13 23 61 89 4 23 14 37 52 73 72 87 20 69 30 29 98 71 52 38 40 28 10 82 98 51 35 
